QBPP_HJ-_30_025_20_3
30 71 1697
20 9 21 45 20 49 20 42 27 32 45 29 48 30 8 28 13 47 14 23 6 15 4 49 4 8 20 7 3 23
    0  -97    0    0    0    0    0    0  -78    0  -38    0  -39    0  -86    0    0  -88    0    0    0  -36    0    0    0    0    0    0  -77  -48
  -97    0  -37    0    0    0    0    0    0    0    0    0  -13    0    0    0    0    0    0    0    0    0  -30    0    0    0    0    0    0    0
    0  -37    0    0    0    0    0  -58    0    0    0    0    0    0    0    0    0    0    0    0    0    0    0    0  -69    0    0    0    0    0
    0    0    0    0    0    0    0   -4    0    0    0    0   -3  -90    0    0    0    0    0    0    0    0    0    0    0  -86    0  -71  -91  -67
    0    0    0    0    0    0    0  -59    0    0    0    0    0    0    0    0    0    0    0    0    0    0    0    0    0    0   -9    0    0    0
    0    0    0    0    0    0  -91    0  -80    0    0    0    0  -92    0    0    0    0    0    0    0    0  -68    0  -25  -42    0  -35    0  -21
    0    0    0    0    0  -91    0    0    0    0    0   -4    0    0  -35    0    0    0    0    0  -14    0    0    0  -21    0    0    0    0  -76
    0    0  -58   -4  -59    0    0    0    0    0   -1  -54    0  -90    0  -89    0    0    0    0    0    0    0    0  -34    0    0    0    0    0
  -78    0    0    0    0  -80    0    0    0   -2    0  -67  -98  -47    0  -11    0    0    0    0    0  -38    0    0    0   -9  -31    0  -38    0
    0    0    0    0    0    0    0    0   -2    0    0    0  -20    0    0    0    0  -80    0    0    0    0    0    0  -55    0  -90    0    0   -9
  -38    0    0    0    0    0    0   -1    0    0    0  -69  -70    0    0    0  -39    0    0    0    0    0    0    0    0  -57    0    0    0  -62
    0    0    0    0    0    0   -4  -54  -67    0  -69    0    0    0    0    0    0  -52    0  -61    0    0    0    0    0    0    0    0    0    0
  -39  -13    0   -3    0    0    0    0  -98  -20  -70    0    0    0  -79  -12    0    0    0    0    0    0  -24    0    0  -83    0    0  -35    0
    0    0    0  -90    0  -92    0  -90  -47    0    0    0    0    0    0    0  -71   -6  -89    0    0    0    0    0    0    0    0    0    0    0
  -86    0    0    0    0    0  -35    0    0    0    0    0  -79    0    0    0    0    0    0    0    0    0    0    0    0    0  -81  -21    0    0
    0    0    0    0    0    0    0  -89  -11    0    0    0  -12    0    0    0    0    0    0    0    0    0    0    0    0    0    0    0    0    0
    0    0    0    0    0    0    0    0    0    0  -39    0    0  -71    0    0    0    0  -51    0    0  -68    0    0    0    0    0    0    0    0
  -88    0    0    0    0    0    0    0    0  -80    0  -52    0   -6    0    0    0    0    0    0  -17    0    0    0    0    0    0  -62    0   -1
    0    0    0    0    0    0    0    0    0    0    0    0    0  -89    0    0  -51    0    0  -65    0    0    0    0    0    0  -99    0    0    0
    0    0    0    0    0    0    0    0    0    0    0  -61    0    0    0    0    0    0  -65    0    0  -46    0    0    0    0  -51    0    0    0
    0    0    0    0    0    0  -14    0    0    0    0    0    0    0    0    0    0  -17    0    0    0    0    0    0  -17    0    0  -81    0  -71
  -36    0    0    0    0    0    0    0  -38    0    0    0    0    0    0    0  -68    0    0  -46    0    0    0  -32    0    0    0    0  -68    0
    0  -30    0    0    0  -68    0    0    0    0    0    0  -24    0    0    0    0    0    0    0    0    0    0  -44    0    0    0    0    0  -41
    0    0    0    0    0    0    0    0    0    0    0    0    0    0    0    0    0    0    0    0    0  -32  -44    0    0    0  -92    0    0  -75
    0    0  -69    0    0  -25  -21  -34    0  -55    0    0    0    0    0    0    0    0    0    0  -17    0    0    0    0  -88  -70  -95    0    0
    0    0    0  -86    0  -42    0    0   -9    0  -57    0  -83    0    0    0    0    0    0    0    0    0    0    0  -88    0  -95    0    0    0
    0    0    0    0   -9    0    0    0  -31  -90    0    0    0    0  -81    0    0    0  -99  -51    0    0    0  -92  -70  -95    0  -24    0    0
    0    0    0  -71    0  -35    0    0    0    0    0    0    0    0  -21    0    0  -62    0    0  -81    0    0    0  -95    0  -24    0  -48    0
  -77    0    0  -91    0    0    0    0  -38    0    0    0  -35    0    0    0    0    0    0    0    0  -68    0    0    0    0    0  -48    0  -37
  -48    0    0  -67    0  -21  -76    0    0   -9  -62    0    0    0    0    0    0   -1    0    0  -71    0  -41  -75    0    0    0    0  -37    0
